NAME: tsp_123
COMMENT: Random TSP instance
TYPE: TSP
DIMENSION: 50
EDGE_WEIGHT_TYPE: EUC_2D
NODE_COORD_SECTION
1 227 156
2 587 212
3 212 625
4 982 895
5 587 16
6 663 254
7 360 381
8 505 385
9 170 223
10 887 0
11 501 473
12 441 544
13 65 985
14 373 536
15 479 574
16 731 860
17 800 361
18 915 52
19 88 947
20 743 320
21 537 234
22 269 392
23 867 690
24 636 197
25 94 880
26 799 690
27 172 6
28 681 293
29 604 434
30 867 978
31 759 394
32 11 56
33 511 292
34 647 546
35 541 37
36 579 332
37 642 730
38 434 27
39 934 67
40 395 399
41 833 501
42 364 135
43 146 347
44 154 149
45 657 6
46 14 200
47 601 705
48 553 177
49 598 434
50 31 806
